<instance format="XCSP3" type="COP">
  <variables>
    <var id="x" note="x is the number of unused bins"> 0..23 </var>
    <array id="b" note="b[i][j] indicates the weight of the jth object put in the ith bin. It is 0 if there is no object at this place." size="[23][3]"> 0 250 251 253..258 260 262 264 266..270 278 279 281 285 290 292 294 302 306 309 333 342 355 394 403 406 411 422 425 428 436 437 453 455 459 467 469 478 489 492 495 496 </array>
  </variables>
  <constraints>
    <group>
      <mdd>
        <list> %... </list>
        <transitions> (root,0,n3)(root,250,n5)(root,251,n6)(root,253,n6)(root,254,n9)(root,255,n10)(root,256,n10)(root,257,n13)(root,258,n14)(root,260,n17)(root,262,n19)(root,264,n20)(root,266,n23)(root,267,n25)(root,268,n26)(root,269,n28)(root,270,n30)(root,278,n32)(root,279,n35)(root,281,n37)(root,285,n39)(root,290,n41)(root,292,n43)(root,294,n44)(root,302,n47)(root,306,n49)(root,309,n50)(root,333,n52)(root,342,n54)(root,355,n56)(root,394,n57)(root,403,n58)(root,406,n59)(root,411,n60)(root,422,n61)(root,425,n62)(root,428,n63)(root,436,n64)(root,437,n65)(root,453,n67)(root,455,n68)(root,459,n69)(root,467,n70)(root,469,n71)(root,478,n72)(root,489,n73)(root,492,n74)(root,495,n75)(root,496,n76)(n3,0,n4)(n4,0,nodeT)(n5,0,n4)(n5,250,n4)(n6,0,n4)(n6,250,n7)(n6,251,n8)(n7,0,nodeT)(n7,250,nodeT)(n8,0,nodeT)(n8,250,nodeT)(n8,251,nodeT)(n9,0,n4)(n9,250,n7)(n9,251,n8)(n9,253,n8)(n10,0,n4)(n10,250,n7)(n10,251,n8)(n10,253,n8)(n10,254,n11)(n10,255,n12)(n11,0,nodeT)(n11,250,nodeT)(n11,251,nodeT)(n11,253,nodeT)(n12,0,nodeT)(n12,250,nodeT)(n12,251,nodeT)(n12,253,nodeT)(n12,254,nodeT)(n12,255,nodeT)(n13,0,n4)(n13,250,n7)(n13,251,n8)(n13,253,n8)(n13,254,n11)(n13,255,n12)(n13,256,n12)(n14,0,n4)(n14,250,n7)(n14,251,n8)(n14,253,n8)(n14,254,n11)(n14,255,n12)(n14,256,n12)(n14,257,n15)(n14,258,n16)(n15,0,nodeT)(n15,250,nodeT)(n15,251,nodeT)(n15,253,nodeT)(n15,254,nodeT)(n15,255,nodeT)(n15,256,nodeT)(n16,0,nodeT)(n16,250,nodeT)(n16,251,nodeT)(n16,253,nodeT)(n16,254,nodeT)(n16,255,nodeT)(n16,256,nodeT)(n16,257,nodeT)(n17,0,n4)(n17,250,n7)(n17,251,n8)(n17,253,n8)(n17,254,n11)(n17,255,n12)(n17,256,n12)(n17,257,n15)(n17,258,n18)(n18,0,nodeT)(n18,250,nodeT)(n18,251,nodeT)(n18,253,nodeT)(n18,254,nodeT)(n18,255,nodeT)(n18,256,nodeT)(n18,257,nodeT)(n18,258,nodeT)(n19,0,n4)(n19,250,n7)(n19,251,n8)(n19,253,n8)(n19,254,n11)(n19,255,n12)(n19,256,n12)(n19,257,n15)(n19,258,n18)(n19,260,n18)(n20,0,n4)(n20,250,n7)(n20,251,n8)(n20,253,n8)(n20,254,n11)(n20,255,n12)(n20,256,n12)(n20,257,n15)(n20,258,n18)(n20,260,n18)(n20,262,n21)(n20,264,n22)(n21,0,nodeT)(n21,250,nodeT)(n21,251,nodeT)(n21,253,nodeT)(n21,254,nodeT)(n21,255,nodeT)(n21,256,nodeT)(n21,257,nodeT)(n21,258,nodeT)(n21,260,nodeT)(n22,0,nodeT)(n22,250,nodeT)(n22,251,nodeT)(n22,253,nodeT)(n22,254,nodeT)(n22,255,nodeT)(n22,256,nodeT)(n22,257,nodeT)(n22,258,nodeT)(n22,260,nodeT)(n22,262,nodeT)(n23,0,n4)(n23,250,n7)(n23,251,n8)(n23,253,n8)(n23,254,n11)(n23,255,n12)(n23,256,n12)(n23,257,n15)(n23,258,n18)(n23,260,n18)(n23,262,n21)(n23,264,n24)(n24,0,nodeT)(n24,250,nodeT)(n24,251,nodeT)(n24,253,nodeT)(n24,254,nodeT)(n24,255,nodeT)(n24,256,nodeT)(n24,257,nodeT)(n24,258,nodeT)(n24,260,nodeT)(n24,262,nodeT)(n24,264,nodeT)(n25,0,n4)(n25,250,n7)(n25,251,n8)(n25,253,n8)(n25,254,n11)(n25,255,n12)(n25,256,n12)(n25,257,n15)(n25,258,n18)(n25,260,n18)(n25,262,n21)(n25,264,n24)(n25,266,n24)(n26,0,n4)(n26,250,n7)(n26,251,n8)(n26,253,n8)(n26,254,n11)(n26,255,n12)(n26,256,n12)(n26,257,n15)(n26,258,n18)(n26,260,n18)(n26,262,n21)(n26,264,n24)(n26,266,n24)(n26,267,n27)(n27,0,nodeT)(n27,250,nodeT)(n27,251,nodeT)(n27,253,nodeT)(n27,254,nodeT)(n27,255,nodeT)(n27,256,nodeT)(n27,257,nodeT)(n27,258,nodeT)(n27,260,nodeT)(n27,262,nodeT)(n27,264,nodeT)(n27,266,nodeT)(n28,0,n4)(n28,250,n7)(n28,251,n8)(n28,253,n8)(n28,254,n11)(n28,255,n12)(n28,256,n12)(n28,257,n15)(n28,258,n18)(n28,260,n18)(n28,262,n21)(n28,264,n24)(n28,266,n24)(n28,267,n27)(n28,268,n29)(n29,0,nodeT)(n29,250,nodeT)(n29,251,nodeT)(n29,253,nodeT)(n29,254,nodeT)(n29,255,nodeT)(n29,256,nodeT)(n29,257,nodeT)(n29,258,nodeT)(n29,260,nodeT)(n29,262,nodeT)(n29,264,nodeT)(n29,266,nodeT)(n29,267,nodeT)(n30,0,n4)(n30,250,n7)(n30,251,n8)(n30,253,n8)(n30,254,n11)(n30,255,n12)(n30,256,n12)(n30,257,n15)(n30,258,n18)(n30,260,n18)(n30,262,n21)(n30,264,n24)(n30,266,n24)(n30,267,n27)(n30,268,n29)(n30,269,n31)(n31,0,nodeT)(n31,250,nodeT)(n31,251,nodeT)(n31,253,nodeT)(n31,254,nodeT)(n31,255,nodeT)(n31,256,nodeT)(n31,257,nodeT)(n31,258,nodeT)(n31,260,nodeT)(n31,262,nodeT)(n31,264,nodeT)(n31,266,nodeT)(n31,267,nodeT)(n31,268,nodeT)(n32,0,n4)(n32,250,n7)(n32,251,n8)(n32,253,n8)(n32,254,n11)(n32,255,n12)(n32,256,n12)(n32,257,n15)(n32,258,n18)(n32,260,n18)(n32,262,n21)(n32,264,n24)(n32,266,n24)(n32,267,n27)(n32,268,n29)(n32,269,n31)(n32,270,n33)(n32,278,n34)(n33,0,nodeT)(n33,250,nodeT)(n33,251,nodeT)(n33,253,nodeT)(n33,254,nodeT)(n33,255,nodeT)(n33,256,nodeT)(n33,257,nodeT)(n33,258,nodeT)(n33,260,nodeT)(n33,262,nodeT)(n33,264,nodeT)(n33,266,nodeT)(n33,267,nodeT)(n33,268,nodeT)(n33,269,nodeT)(n34,0,nodeT)(n34,250,nodeT)(n34,251,nodeT)(n34,253,nodeT)(n34,254,nodeT)(n34,255,nodeT)(n34,256,nodeT)(n34,257,nodeT)(n34,258,nodeT)(n34,260,nodeT)(n34,262,nodeT)(n34,264,nodeT)(n34,266,nodeT)(n34,267,nodeT)(n34,268,nodeT)(n34,269,nodeT)(n34,270,nodeT)(n35,0,n4)(n35,250,n7)(n35,251,n8)(n35,253,n8)(n35,254,n11)(n35,255,n12)(n35,256,n12)(n35,257,n15)(n35,258,n18)(n35,260,n18)(n35,262,n21)(n35,264,n24)(n35,266,n24)(n35,267,n27)(n35,268,n29)(n35,269,n31)(n35,270,n33)(n35,278,n36)(n35,279,n36)(n36,0,nodeT)(n36,250,nodeT)(n36,251,nodeT)(n36,253,nodeT)(n36,254,nodeT)(n36,255,nodeT)(n36,256,nodeT)(n36,257,nodeT)(n36,258,nodeT)(n36,260,nodeT)(n36,262,nodeT)(n36,264,nodeT)(n36,266,nodeT)(n36,267,nodeT)(n36,268,nodeT)(n36,269,nodeT)(n36,270,nodeT)(n36,278,nodeT)(n37,0,n4)(n37,250,n7)(n37,251,n8)(n37,253,n8)(n37,254,n11)(n37,255,n12)(n37,256,n12)(n37,257,n15)(n37,258,n18)(n37,260,n18)(n37,262,n21)(n37,264,n24)(n37,266,n24)(n37,267,n27)(n37,268,n29)(n37,269,n31)(n37,270,n33)(n37,278,n36)(n37,279,n38)(n38,0,nodeT)(n38,250,nodeT)(n38,251,nodeT)(n38,253,nodeT)(n38,254,nodeT)(n38,255,nodeT)(n38,256,nodeT)(n38,257,nodeT)(n38,258,nodeT)(n38,260,nodeT)(n38,262,nodeT)(n38,264,nodeT)(n38,266,nodeT)(n38,267,nodeT)(n38,268,nodeT)(n38,269,nodeT)(n38,270,nodeT)(n38,278,nodeT)(n38,279,nodeT)(n39,0,n4)(n39,250,n7)(n39,251,n8)(n39,253,n8)(n39,254,n11)(n39,255,n12)(n39,256,n12)(n39,257,n15)(n39,258,n18)(n39,260,n18)(n39,262,n21)(n39,264,n24)(n39,266,n24)(n39,267,n27)(n39,268,n29)(n39,269,n31)(n39,270,n33)(n39,278,n36)(n39,279,n38)(n39,281,n38)(n39,285,n40)(n40,0,nodeT)(n40,250,nodeT)(n40,251,nodeT)(n40,253,nodeT)(n40,254,nodeT)(n40,255,nodeT)(n40,256,nodeT)(n40,257,nodeT)(n40,258,nodeT)(n40,260,nodeT)(n40,262,nodeT)(n40,264,nodeT)(n40,266,nodeT)(n40,267,nodeT)(n40,268,nodeT)(n40,269,nodeT)(n40,270,nodeT)(n40,278,nodeT)(n40,279,nodeT)(n40,281,nodeT)(n41,0,n4)(n41,250,n7)(n41,251,n8)(n41,253,n8)(n41,254,n11)(n41,255,n12)(n41,256,n12)(n41,257,n15)(n41,258,n18)(n41,260,n18)(n41,262,n21)(n41,264,n24)(n41,266,n24)(n41,267,n27)(n41,268,n29)(n41,269,n31)(n41,270,n33)(n41,278,n36)(n41,279,n38)(n41,281,n38)(n41,285,n42)(n42,0,nodeT)(n42,250,nodeT)(n42,251,nodeT)(n42,253,nodeT)(n42,254,nodeT)(n42,255,nodeT)(n42,256,nodeT)(n42,257,nodeT)(n42,258,nodeT)(n42,260,nodeT)(n42,262,nodeT)(n42,264,nodeT)(n42,266,nodeT)(n42,267,nodeT)(n42,268,nodeT)(n42,269,nodeT)(n42,270,nodeT)(n42,278,nodeT)(n42,279,nodeT)(n42,281,nodeT)(n42,285,nodeT)(n43,0,n4)(n43,250,n7)(n43,251,n8)(n43,253,n8)(n43,254,n11)(n43,255,n12)(n43,256,n12)(n43,257,n15)(n43,258,n18)(n43,260,n18)(n43,262,n21)(n43,264,n24)(n43,266,n24)(n43,267,n27)(n43,268,n29)(n43,269,n31)(n43,270,n33)(n43,278,n36)(n43,279,n38)(n43,281,n38)(n43,285,n42)(n43,290,n42)(n44,0,n4)(n44,250,n7)(n44,251,n8)(n44,253,n8)(n44,254,n11)(n44,255,n12)(n44,256,n12)(n44,257,n15)(n44,258,n18)(n44,260,n18)(n44,262,n21)(n44,264,n24)(n44,266,n24)(n44,267,n27)(n44,268,n29)(n44,269,n31)(n44,270,n33)(n44,278,n36)(n44,279,n38)(n44,281,n38)(n44,285,n42)(n44,290,n42)(n44,292,n45)(n44,294,n46)(n45,0,nodeT)(n45,250,nodeT)(n45,251,nodeT)(n45,253,nodeT)(n45,254,nodeT)(n45,255,nodeT)(n45,256,nodeT)(n45,257,nodeT)(n45,258,nodeT)(n45,260,nodeT)(n45,262,nodeT)(n45,264,nodeT)(n45,266,nodeT)(n45,267,nodeT)(n45,268,nodeT)(n45,269,nodeT)(n45,270,nodeT)(n45,278,nodeT)(n45,279,nodeT)(n45,281,nodeT)(n45,285,nodeT)(n45,290,nodeT)(n46,0,nodeT)(n46,250,nodeT)(n46,251,nodeT)(n46,253,nodeT)(n46,254,nodeT)(n46,255,nodeT)(n46,256,nodeT)(n46,257,nodeT)(n46,258,nodeT)(n46,260,nodeT)(n46,262,nodeT)(n46,264,nodeT)(n46,266,nodeT)(n46,267,nodeT)(n46,268,nodeT)(n46,269,nodeT)(n46,270,nodeT)(n46,278,nodeT)(n46,279,nodeT)(n46,281,nodeT)(n46,285,nodeT)(n46,290,nodeT)(n46,292,nodeT)(n47,0,n4)(n47,250,n7)(n47,251,n8)(n47,253,n8)(n47,254,n11)(n47,255,n12)(n47,256,n12)(n47,257,n15)(n47,258,n18)(n47,260,n18)(n47,262,n21)(n47,264,n24)(n47,266,n24)(n47,267,n27)(n47,268,n29)(n47,269,n31)(n47,270,n33)(n47,278,n36)(n47,279,n38)(n47,281,n38)(n47,285,n42)(n47,290,n42)(n47,292,n45)(n47,294,n48)(n48,0,nodeT)(n48,250,nodeT)(n48,251,nodeT)(n48,253,nodeT)(n48,254,nodeT)(n48,255,nodeT)(n48,256,nodeT)(n48,257,nodeT)(n48,258,nodeT)(n48,260,nodeT)(n48,262,nodeT)(n48,264,nodeT)(n48,266,nodeT)(n48,267,nodeT)(n48,268,nodeT)(n48,269,nodeT)(n48,270,nodeT)(n48,278,nodeT)(n48,279,nodeT)(n48,281,nodeT)(n48,285,nodeT)(n48,290,nodeT)(n48,292,nodeT)(n48,294,nodeT)(n49,0,n4)(n49,250,n7)(n49,251,n8)(n49,253,n8)(n49,254,n11)(n49,255,n12)(n49,256,n12)(n49,257,n15)(n49,258,n18)(n49,260,n18)(n49,262,n21)(n49,264,n24)(n49,266,n24)(n49,267,n27)(n49,268,n29)(n49,269,n31)(n49,270,n33)(n49,278,n36)(n49,279,n38)(n49,281,n38)(n49,285,n42)(n49,290,n42)(n49,292,n45)(n49,294,n48)(n49,302,n48)(n50,0,n4)(n50,250,n7)(n50,251,n8)(n50,253,n8)(n50,254,n11)(n50,255,n12)(n50,256,n12)(n50,257,n15)(n50,258,n18)(n50,260,n18)(n50,262,n21)(n50,264,n24)(n50,266,n24)(n50,267,n27)(n50,268,n29)(n50,269,n31)(n50,270,n33)(n50,278,n36)(n50,279,n38)(n50,281,n38)(n50,285,n42)(n50,290,n42)(n50,292,n45)(n50,294,n48)(n50,302,n48)(n50,306,n51)(n51,0,nodeT)(n51,250,nodeT)(n51,251,nodeT)(n51,253,nodeT)(n51,254,nodeT)(n51,255,nodeT)(n51,256,nodeT)(n51,257,nodeT)(n51,258,nodeT)(n51,260,nodeT)(n51,262,nodeT)(n51,264,nodeT)(n51,266,nodeT)(n51,267,nodeT)(n51,268,nodeT)(n51,269,nodeT)(n51,270,nodeT)(n51,278,nodeT)(n51,279,nodeT)(n51,281,nodeT)(n51,285,nodeT)(n51,290,nodeT)(n51,292,nodeT)(n51,294,nodeT)(n51,302,nodeT)(n52,0,n4)(n52,250,n7)(n52,251,n8)(n52,253,n8)(n52,254,n11)(n52,255,n12)(n52,256,n12)(n52,257,n15)(n52,258,n18)(n52,260,n18)(n52,262,n21)(n52,264,n24)(n52,266,n24)(n52,267,n27)(n52,268,n29)(n52,269,n31)(n52,270,n33)(n52,278,n36)(n52,279,n38)(n52,281,n38)(n52,285,n42)(n52,290,n42)(n52,292,n45)(n52,294,n48)(n52,302,n48)(n52,306,n51)(n52,309,n53)(n53,0,nodeT)(n53,250,nodeT)(n53,251,nodeT)(n53,253,nodeT)(n53,254,nodeT)(n53,255,nodeT)(n53,256,nodeT)(n53,257,nodeT)(n53,258,nodeT)(n53,260,nodeT)(n53,262,nodeT)(n53,264,nodeT)(n53,266,nodeT)(n53,267,nodeT)(n53,268,nodeT)(n53,269,nodeT)(n53,270,nodeT)(n53,278,nodeT)(n53,279,nodeT)(n53,281,nodeT)(n53,285,nodeT)(n53,290,nodeT)(n53,292,nodeT)(n53,294,nodeT)(n53,302,nodeT)(n53,306,nodeT)(n54,0,n4)(n54,250,n7)(n54,251,n8)(n54,253,n8)(n54,254,n11)(n54,255,n12)(n54,256,n12)(n54,257,n15)(n54,258,n18)(n54,260,n18)(n54,262,n21)(n54,264,n24)(n54,266,n24)(n54,267,n27)(n54,268,n29)(n54,269,n31)(n54,270,n33)(n54,278,n36)(n54,279,n38)(n54,281,n38)(n54,285,n42)(n54,290,n42)(n54,292,n45)(n54,294,n48)(n54,302,n48)(n54,306,n51)(n54,309,n53)(n54,333,n55)(n55,0,nodeT)(n55,250,nodeT)(n55,251,nodeT)(n55,253,nodeT)(n55,254,nodeT)(n55,255,nodeT)(n55,256,nodeT)(n55,257,nodeT)(n55,258,nodeT)(n55,260,nodeT)(n55,262,nodeT)(n55,264,nodeT)(n55,266,nodeT)(n55,267,nodeT)(n55,268,nodeT)(n55,269,nodeT)(n55,270,nodeT)(n55,278,nodeT)(n55,279,nodeT)(n55,281,nodeT)(n55,285,nodeT)(n55,290,nodeT)(n55,292,nodeT)(n55,294,nodeT)(n55,302,nodeT)(n55,306,nodeT)(n55,309,nodeT)(n56,0,n4)(n56,250,n7)(n56,251,n8)(n56,253,n8)(n56,254,n11)(n56,255,n12)(n56,256,n12)(n56,257,n15)(n56,258,n18)(n56,260,n18)(n56,262,n21)(n56,264,n24)(n56,266,n24)(n56,267,n27)(n56,268,n29)(n56,269,n31)(n56,270,n33)(n56,278,n36)(n56,279,n38)(n56,281,n38)(n56,285,n42)(n56,290,n42)(n56,292,n45)(n56,294,n48)(n56,302,n48)(n56,306,n51)(n56,309,n53)(n56,333,n55)(n56,342,n51)(n57,0,n4)(n57,250,n7)(n57,251,n8)(n57,253,n8)(n57,254,n11)(n57,255,n12)(n57,256,n12)(n57,257,n15)(n57,258,n18)(n57,260,n18)(n57,262,n21)(n57,264,n24)(n57,266,n24)(n57,267,n27)(n57,268,n29)(n57,269,n31)(n57,270,n33)(n57,278,n36)(n57,279,n38)(n57,281,n38)(n57,285,n42)(n57,290,n42)(n57,292,n45)(n57,294,n48)(n57,302,n48)(n57,306,n48)(n57,309,n48)(n57,333,n34)(n57,342,n24)(n57,355,n8)(n58,0,n4)(n58,250,n7)(n58,251,n8)(n58,253,n8)(n58,254,n11)(n58,255,n12)(n58,256,n12)(n58,257,n15)(n58,258,n18)(n58,260,n18)(n58,262,n21)(n58,264,n24)(n58,266,n24)(n58,267,n27)(n58,268,n29)(n58,269,n31)(n58,270,n33)(n58,278,n36)(n58,279,n38)(n58,281,n38)(n58,285,n42)(n58,290,n42)(n58,292,n45)(n58,294,n48)(n58,302,n48)(n58,306,n45)(n58,309,n42)(n58,333,n24)(n58,342,n12)(n58,355,n4)(n58,394,n4)(n59,0,n4)(n59,250,n7)(n59,251,n8)(n59,253,n8)(n59,254,n11)(n59,255,n12)(n59,256,n12)(n59,257,n15)(n59,258,n18)(n59,260,n18)(n59,262,n21)(n59,264,n24)(n59,266,n24)(n59,267,n27)(n59,268,n29)(n59,269,n31)(n59,270,n33)(n59,278,n36)(n59,279,n38)(n59,281,n38)(n59,285,n42)(n59,290,n42)(n59,292,n45)(n59,294,n48)(n59,302,n46)(n59,306,n42)(n59,309,n42)(n59,333,n21)(n59,342,n8)(n59,355,n4)(n59,394,n4)(n59,403,n4)(n60,0,n4)(n60,250,n7)(n60,251,n8)(n60,253,n8)(n60,254,n11)(n60,255,n12)(n60,256,n12)(n60,257,n15)(n60,258,n18)(n60,260,n18)(n60,262,n21)(n60,264,n24)(n60,266,n24)(n60,267,n27)(n60,268,n29)(n60,269,n31)(n60,270,n33)(n60,278,n36)(n60,279,n38)(n60,281,n38)(n60,285,n42)(n60,290,n42)(n60,292,n45)(n60,294,n48)(n60,302,n42)(n60,306,n40)(n60,309,n38)(n60,333,n15)(n60,342,n4)(n60,355,n4)(n60,394,n4)(n60,403,n4)(n60,406,n4)(n61,0,n4)(n61,250,n7)(n61,251,n8)(n61,253,n8)(n61,254,n11)(n61,255,n12)(n61,256,n12)(n61,257,n15)(n61,258,n18)(n61,260,n18)(n61,262,n21)(n61,264,n24)(n61,266,n24)(n61,267,n27)(n61,268,n29)(n61,269,n31)(n61,270,n33)(n61,278,n36)(n61,279,n38)(n61,281,n38)(n61,285,n42)(n61,290,n42)(n61,292,n42)(n61,294,n40)(n61,302,n34)(n61,306,n34)(n61,309,n33)(n61,333,n4)(n61,342,n4)(n61,355,n4)(n61,394,n4)(n61,403,n4)(n61,406,n4)(n61,411,n4)(n62,0,n4)(n62,250,n7)(n62,251,n8)(n62,253,n8)(n62,254,n11)(n62,255,n12)(n62,256,n12)(n62,257,n15)(n62,258,n18)(n62,260,n18)(n62,262,n21)(n62,264,n24)(n62,266,n24)(n62,267,n27)(n62,268,n29)(n62,269,n31)(n62,270,n33)(n62,278,n36)(n62,279,n38)(n62,281,n38)(n62,285,n42)(n62,290,n42)(n62,292,n40)(n62,294,n40)(n62,302,n34)(n62,306,n33)(n62,309,n27)(n62,333,n4)(n62,342,n4)(n62,355,n4)(n62,394,n4)(n62,403,n4)(n62,406,n4)(n62,411,n4)(n62,422,n4)(n63,0,n4)(n63,250,n7)(n63,251,n8)(n63,253,n8)(n63,254,n11)(n63,255,n12)(n63,256,n12)(n63,257,n15)(n63,258,n18)(n63,260,n18)(n63,262,n21)(n63,264,n24)(n63,266,n24)(n63,267,n27)(n63,268,n29)(n63,269,n31)(n63,270,n33)(n63,278,n36)(n63,279,n38)(n63,281,n38)(n63,285,n42)(n63,290,n40)(n63,292,n38)(n63,294,n36)(n63,302,n34)(n63,306,n27)(n63,309,n22)(n63,333,n4)(n63,342,n4)(n63,355,n4)(n63,394,n4)(n63,403,n4)(n63,406,n4)(n63,411,n4)(n63,422,n4)(n63,425,n4)(n64,0,n4)(n64,250,n7)(n64,251,n8)(n64,253,n8)(n64,254,n11)(n64,255,n12)(n64,256,n12)(n64,257,n15)(n64,258,n18)(n64,260,n18)(n64,262,n21)(n64,264,n24)(n64,266,n24)(n64,267,n27)(n64,268,n29)(n64,269,n31)(n64,270,n33)(n64,278,n36)(n64,279,n38)(n64,281,n38)(n64,285,n38)(n64,290,n34)(n64,292,n34)(n64,294,n34)(n64,302,n22)(n64,306,n18)(n64,309,n12)(n64,333,n4)(n64,342,n4)(n64,355,n4)(n64,394,n4)(n64,403,n4)(n64,406,n4)(n64,411,n4)(n64,422,n4)(n64,425,n4)(n64,428,n4)(n65,0,n4)(n65,250,n7)(n65,251,n8)(n65,253,n8)(n65,254,n11)(n65,255,n12)(n65,256,n12)(n65,257,n15)(n65,258,n18)(n65,260,n18)(n65,262,n21)(n65,264,n24)(n65,266,n24)(n65,267,n27)(n65,268,n29)(n65,269,n31)(n65,270,n33)(n65,278,n36)(n65,279,n38)(n65,281,n38)(n65,285,n36)(n65,290,n34)(n65,292,n34)(n65,294,n33)(n65,302,n21)(n65,306,n16)(n65,309,n66)(n65,333,n4)(n65,342,n4)(n65,355,n4)(n65,394,n4)(n65,403,n4)(n65,406,n4)(n65,411,n4)(n65,422,n4)(n65,425,n4)(n65,428,n4)(n65,436,n4)(n66,0,nodeT)(n66,250,nodeT)(n66,251,nodeT)(n66,253,nodeT)(n66,254,nodeT)(n67,0,n4)(n67,250,n7)(n67,251,n8)(n67,253,n8)(n67,254,n11)(n67,255,n12)(n67,256,n12)(n67,257,n15)(n67,258,n18)(n67,260,n18)(n67,262,n21)(n67,264,n24)(n67,266,n24)(n67,267,n27)(n67,268,n29)(n67,269,n31)(n67,270,n33)(n67,278,n33)(n67,279,n31)(n67,281,n27)(n67,285,n22)(n67,290,n16)(n67,292,n12)(n67,294,n11)(n67,302,n4)(n67,306,n4)(n67,309,n4)(n67,333,n4)(n67,342,n4)(n67,355,n4)(n67,394,n4)(n67,403,n4)(n67,406,n4)(n67,411,n4)(n67,422,n4)(n67,425,n4)(n67,428,n4)(n67,436,n4)(n67,437,n4)(n68,0,n4)(n68,250,n7)(n68,251,n8)(n68,253,n8)(n68,254,n11)(n68,255,n12)(n68,256,n12)(n68,257,n15)(n68,258,n18)(n68,260,n18)(n68,262,n21)(n68,264,n24)(n68,266,n24)(n68,267,n27)(n68,268,n29)(n68,269,n31)(n68,270,n33)(n68,278,n29)(n68,279,n27)(n68,281,n24)(n68,285,n21)(n68,290,n12)(n68,292,n11)(n68,294,n8)(n68,302,n4)(n68,306,n4)(n68,309,n4)(n68,333,n4)(n68,342,n4)(n68,355,n4)(n68,394,n4)(n68,403,n4)(n68,406,n4)(n68,411,n4)(n68,422,n4)(n68,425,n4)(n68,428,n4)(n68,436,n4)(n68,437,n4)(n68,453,n4)(n69,0,n4)(n69,250,n7)(n69,251,n8)(n69,253,n8)(n69,254,n11)(n69,255,n12)(n69,256,n12)(n69,257,n15)(n69,258,n18)(n69,260,n18)(n69,262,n21)(n69,264,n24)(n69,266,n24)(n69,267,n27)(n69,268,n29)(n69,269,n31)(n69,270,n33)(n69,278,n22)(n69,279,n22)(n69,281,n21)(n69,285,n15)(n69,290,n8)(n69,292,n4)(n69,294,n4)(n69,302,n4)(n69,306,n4)(n69,309,n4)(n69,333,n4)(n69,342,n4)(n69,355,n4)(n69,394,n4)(n69,403,n4)(n69,406,n4)(n69,411,n4)(n69,422,n4)(n69,425,n4)(n69,428,n4)(n69,436,n4)(n69,437,n4)(n69,453,n4)(n69,455,n4)(n69,459,n4)(n70,0,n4)(n70,250,n7)(n70,251,n8)(n70,253,n8)(n70,254,n11)(n70,255,n12)(n70,256,n12)(n70,257,n15)(n70,258,n18)(n70,260,n18)(n70,262,n21)(n70,264,n24)(n70,266,n24)(n70,267,n27)(n70,268,n24)(n70,269,n24)(n70,270,n22)(n70,278,n12)(n70,279,n66)(n70,281,n8)(n70,285,n4)(n70,290,n4)(n70,292,n4)(n70,294,n4)(n70,302,n4)(n70,306,n4)(n70,309,n4)(n70,333,n4)(n70,342,n4)(n70,355,n4)(n70,394,n4)(n70,403,n4)(n70,406,n4)(n70,411,n4)(n70,422,n4)(n70,425,n4)(n70,428,n4)(n70,436,n4)(n70,437,n4)(n70,453,n4)(n70,455,n4)(n70,459,n4)(n71,0,n4)(n71,250,n7)(n71,251,n8)(n71,253,n8)(n71,254,n11)(n71,255,n12)(n71,256,n12)(n71,257,n15)(n71,258,n18)(n71,260,n18)(n71,262,n21)(n71,264,n24)(n71,266,n24)(n71,267,n24)(n71,268,n22)(n71,269,n22)(n71,270,n21)(n71,278,n11)(n71,279,n8)(n71,281,n7)(n71,285,n4)(n71,290,n4)(n71,292,n4)(n71,294,n4)(n71,302,n4)(n71,306,n4)(n71,309,n4)(n71,333,n4)(n71,342,n4)(n71,355,n4)(n71,394,n4)(n71,403,n4)(n71,406,n4)(n71,411,n4)(n71,422,n4)(n71,425,n4)(n71,428,n4)(n71,436,n4)(n71,437,n4)(n71,453,n4)(n71,455,n4)(n71,459,n4)(n71,467,n4)(n72,0,n4)(n72,250,n7)(n72,251,n8)(n72,253,n8)(n72,254,n11)(n72,255,n12)(n72,256,n12)(n72,257,n15)(n72,258,n18)(n72,260,n18)(n72,262,n21)(n72,264,n18)(n72,266,n15)(n72,267,n12)(n72,268,n66)(n72,269,n11)(n72,270,n8)(n72,278,n4)(n72,279,n4)(n72,281,n4)(n72,285,n4)(n72,290,n4)(n72,292,n4)(n72,294,n4)(n72,302,n4)(n72,306,n4)(n72,309,n4)(n72,333,n4)(n72,342,n4)(n72,355,n4)(n72,394,n4)(n72,403,n4)(n72,406,n4)(n72,411,n4)(n72,422,n4)(n72,425,n4)(n72,428,n4)(n72,436,n4)(n72,437,n4)(n72,453,n4)(n72,455,n4)(n72,459,n4)(n72,467,n4)(n72,469,n4)(n73,0,n4)(n73,250,n7)(n73,251,n8)(n73,253,n8)(n73,254,n11)(n73,255,n12)(n73,256,n12)(n73,257,n66)(n73,258,n11)(n73,260,n8)(n73,262,n4)(n73,264,n4)(n73,266,n4)(n73,267,n4)(n73,268,n4)(n73,269,n4)(n73,270,n4)(n73,278,n4)(n73,279,n4)(n73,281,n4)(n73,285,n4)(n73,290,n4)(n73,292,n4)(n73,294,n4)(n73,302,n4)(n73,306,n4)(n73,309,n4)(n73,333,n4)(n73,342,n4)(n73,355,n4)(n73,394,n4)(n73,403,n4)(n73,406,n4)(n73,411,n4)(n73,422,n4)(n73,425,n4)(n73,428,n4)(n73,436,n4)(n73,437,n4)(n73,453,n4)(n73,455,n4)(n73,459,n4)(n73,467,n4)(n73,469,n4)(n73,478,n4)(n74,0,n4)(n74,250,n7)(n74,251,n8)(n74,253,n8)(n74,254,n11)(n74,255,n11)(n74,256,n8)(n74,257,n8)(n74,258,n7)(n74,260,n4)(n74,262,n4)(n74,264,n4)(n74,266,n4)(n74,267,n4)(n74,268,n4)(n74,269,n4)(n74,270,n4)(n74,278,n4)(n74,279,n4)(n74,281,n4)(n74,285,n4)(n74,290,n4)(n74,292,n4)(n74,294,n4)(n74,302,n4)(n74,306,n4)(n74,309,n4)(n74,333,n4)(n74,342,n4)(n74,355,n4)(n74,394,n4)(n74,403,n4)(n74,406,n4)(n74,411,n4)(n74,422,n4)(n74,425,n4)(n74,428,n4)(n74,436,n4)(n74,437,n4)(n74,453,n4)(n74,455,n4)(n74,459,n4)(n74,467,n4)(n74,469,n4)(n74,478,n4)(n74,489,n4)(n75,0,n4)(n75,250,n7)(n75,251,n8)(n75,253,n8)(n75,254,n8)(n75,255,n7)(n75,256,n4)(n75,257,n4)(n75,258,n4)(n75,260,n4)(n75,262,n4)(n75,264,n4)(n75,266,n4)(n75,267,n4)(n75,268,n4)(n75,269,n4)(n75,270,n4)(n75,278,n4)(n75,279,n4)(n75,281,n4)(n75,285,n4)(n75,290,n4)(n75,292,n4)(n75,294,n4)(n75,302,n4)(n75,306,n4)(n75,309,n4)(n75,333,n4)(n75,342,n4)(n75,355,n4)(n75,394,n4)(n75,403,n4)(n75,406,n4)(n75,411,n4)(n75,422,n4)(n75,425,n4)(n75,428,n4)(n75,436,n4)(n75,437,n4)(n75,453,n4)(n75,455,n4)(n75,459,n4)(n75,467,n4)(n75,469,n4)(n75,478,n4)(n75,489,n4)(n75,492,n4)(n76,0,n4)(n76,250,n7)(n76,251,n8)(n76,253,n8)(n76,254,n7)(n76,255,n4)(n76,256,n4)(n76,257,n4)(n76,258,n4)(n76,260,n4)(n76,262,n4)(n76,264,n4)(n76,266,n4)(n76,267,n4)(n76,268,n4)(n76,269,n4)(n76,270,n4)(n76,278,n4)(n76,279,n4)(n76,281,n4)(n76,285,n4)(n76,290,n4)(n76,292,n4)(n76,294,n4)(n76,302,n4)(n76,306,n4)(n76,309,n4)(n76,333,n4)(n76,342,n4)(n76,355,n4)(n76,394,n4)(n76,403,n4)(n76,406,n4)(n76,411,n4)(n76,422,n4)(n76,425,n4)(n76,428,n4)(n76,436,n4)(n76,437,n4)(n76,453,n4)(n76,455,n4)(n76,459,n4)(n76,467,n4)(n76,469,n4)(n76,478,n4)(n76,489,n4)(n76,492,n4)(n76,495,n4) </transitions>
      </mdd>
      <args> b[0][] </args>
      <args> b[1][] </args>
      <args> b[2][] </args>
      <args> b[3][] </args>
      <args> b[4][] </args>
      <args> b[5][] </args>
      <args> b[6][] </args>
      <args> b[7][] </args>
      <args> b[8][] </args>
      <args> b[9][] </args>
      <args> b[10][] </args>
      <args> b[11][] </args>
      <args> b[12][] </args>
      <args> b[13][] </args>
      <args> b[14][] </args>
      <args> b[15][] </args>
      <args> b[16][] </args>
      <args> b[17][] </args>
      <args> b[18][] </args>
      <args> b[19][] </args>
      <args> b[20][] </args>
      <args> b[21][] </args>
      <args> b[22][] </args>
    </group>
    <cardinality>
      <list> b[][] </list>
      <values> 0 250 251 253 254 255 256 257 258 260 262 264 266 267 268 269 270 278 279 281 285 290 292 294 302 306 309 333 342 355 394 403 406 411 422 425 428 436 437 453 455 459 467 469 478 489 492 495 496 </values>
      <occurs> 9 2 3 1 1 3 1 1 2 1 1 2 1 1 1 1 1 2 2 1 2 1 1 2 1 1 1 1 1 1 1 1 1 1 1 1 1 1 1 1 1 2 1 1 1 1 1 1 1 </occurs>
    </cardinality>
    <lex class="symmetryBreaking">
      <list> b[0][] </list>
      <list> b[1][] </list>
      <list> b[2][] </list>
      <list> b[3][] </list>
      <list> b[4][] </list>
      <list> b[5][] </list>
      <list> b[6][] </list>
      <list> b[7][] </list>
      <list> b[8][] </list>
      <list> b[9][] </list>
      <list> b[10][] </list>
      <list> b[11][] </list>
      <list> b[12][] </list>
      <list> b[13][] </list>
      <list> b[14][] </list>
      <list> b[15][] </list>
      <list> b[16][] </list>
      <list> b[17][] </list>
      <list> b[18][] </list>
      <list> b[19][] </list>
      <list> b[20][] </list>
      <list> b[21][] </list>
      <list> b[22][] </list>
      <operator> ge </operator>
    </lex>
    <count>
      <list> b[][0] </list>
      <values> 0 </values>
      <condition> (eq,x) </condition>
    </count>
  </constraints>
  <objectives>
    <maximize> x </maximize>
  </objectives>
</instance>
